
Gurobi 9.1.2 (win64) logging started Fri Sep 24 00:46:47 2021

Changed value of parameter LogFile to ../results/logs/log_samuel_kroger_2021_09_24_00_46_47.csv_27_250.log
   Prev:   Default: 
Changed value of parameter method to 3
   Prev: -1  Min: -1  Max: 5  Default: -1
Gurobi Optimizer version 9.1.2 build v9.1.2rc0 (win64)
Thread count: 6 physical cores, 12 logical processors, using up to 12 threads
Optimize a model with 2586 rows, 8078 columns and 61963 nonzeros
Model fingerprint: 0xdf6c0dfd
Variable types: 0 continuous, 8078 integer (8078 binary)
Coefficient statistics:
  Matrix range     [1e+00, 3e+01]
  Objective range  [1e+00, 1e+00]
  Bounds range     [1e+00, 1e+00]
  RHS range        [1e+00, 3e+02]
Found heuristic solution: objective -0.0000000
Presolve removed 1301 rows and 5645 columns
Presolve time: 0.09s
Presolved: 1285 rows, 2433 columns, 39453 nonzeros
Variable types: 0 continuous, 2433 integer (2343 binary)

Concurrent LP optimizer: primal simplex, dual simplex, and barrier
Showing barrier log only...

Root barrier log...

Ordering time: 0.01s

Barrier statistics:
 AA' NZ     : 4.118e+04
 Factor NZ  : 5.766e+04 (roughly 2 MBytes of memory)
 Factor Ops : 3.779e+06 (less than 1 second per iteration)
 Threads    : 4

                  Objective                Residual
Iter       Primal          Dual         Primal    Dual     Compl     Time
   0   1.72737233e+03  2.02888281e+03  6.74e+03 8.30e-01  3.75e+01     0s
   1   8.38286854e+02  5.67743464e+03  1.92e+03 1.78e+00  1.09e+01     0s
   2   2.46189332e+02  5.67051291e+03  1.02e+02 1.61e-01  1.37e+00     0s
   3   2.83986547e+02  1.71736340e+03  5.75e+00 2.31e-02  2.54e-01     0s
   4   4.74908829e+02  8.53688863e+02  3.23e-02 4.83e-03  6.36e-02     0s
   5   5.67943060e+02  6.76046447e+02  0.00e+00 8.92e-04  1.81e-02     0s
   6   5.94944799e+02  6.44810706e+02  0.00e+00 4.79e-04  8.38e-03     0s
   7   6.00546121e+02  6.24715607e+02  0.00e+00 2.18e-04  4.06e-03     0s
   8   6.03825552e+02  6.14680369e+02  0.00e+00 8.79e-05  1.82e-03     0s
   9   6.05942918e+02  6.10429558e+02  0.00e+00 3.22e-05  7.51e-04     0s
  10   6.06822210e+02  6.08387407e+02  0.00e+00 8.92e-06  2.61e-04     0s
  11   6.07331688e+02  6.07610255e+02  0.00e+00 1.18e-06  4.65e-05     0s
  12   6.07409715e+02  6.07423665e+02  0.00e+00 1.22e-15  2.30e-06     0s

Barrier performed 12 iterations in 0.19 seconds
Barrier solve interrupted - model solved by another algorithm


Solved with dual simplex

Root relaxation: objective 6.074154e+02, 1495 iterations, 0.08 seconds

    Nodes    |    Current Node    |     Objective Bounds      |     Work
 Expl Unexpl |  Obj  Depth IntInf | Incumbent    BestBd   Gap | It/Node Time

     0     0  607.41538    0  354   -0.00000  607.41538      -     -    0s
H    0     0                      14.0000000  607.41538  4239%     -    0s
H    0     0                      46.0000000  607.41538  1220%     -    0s
H    0     0                      57.0000000  607.41538   966%     -    0s
H    0     0                      65.0000000  607.41538   834%     -    0s
H    0     0                      77.0000000  607.41538   689%     -    0s
H    0     0                      81.0000000  575.59741   611%     -    0s
H    0     0                      85.0000000  575.59741   577%     -    0s
H    0     0                      96.0000000  575.59741   500%     -    0s
H    0     0                     130.0000000  575.59741   343%     -    0s
     0     0  561.84293    0  525  130.00000  561.84293   332%     -    0s
H    0     0                     137.0000000  561.84293   310%     -    0s
     0     0  561.69524    0  604  137.00000  561.69524   310%     -    1s
     0     0  556.68385    0  654  137.00000  556.68385   306%     -    1s
     0     0  555.53953    0  652  137.00000  555.53953   306%     -    1s
     0     0  555.32937    0  667  137.00000  555.32937   305%     -    1s
     0     0  555.28409    0  673  137.00000  555.28409   305%     -    1s
     0     0  555.26127    0  673  137.00000  555.26127   305%     -    1s
H    0     0                     150.0000000  555.26127   270%     -    1s
     0     0  555.25404    0  673  150.00000  555.25404   270%     -    1s
H    0     0                     157.0000000  555.25404   254%     -    2s
     0     0  549.72475    0  738  157.00000  549.72475   250%     -    2s
H    0     0                     396.0000000  549.72475  38.8%     -    2s
     0     0  546.89657    0  744  396.00000  546.89657  38.1%     -    2s
     0     0  546.00844    0  774  396.00000  546.00844  37.9%     -    2s
     0     0  545.72260    0  785  396.00000  545.72260  37.8%     -    2s
     0     0  545.61487    0  790  396.00000  545.61487  37.8%     -    2s
     0     0  545.58206    0  790  396.00000  545.58206  37.8%     -    3s
     0     0  541.72948    0  825  396.00000  541.72948  36.8%     -    3s
H    0     0                     399.0000000  541.72948  35.8%     -    3s
H    0     0                     432.0000000  541.72948  25.4%     -    3s
     0     0  540.30323    0  817  432.00000  540.30323  25.1%     -    3s
     0     0  539.71986    0  853  432.00000  539.71986  24.9%     -    3s
     0     0  539.56717    0  849  432.00000  539.56717  24.9%     -    4s
     0     0  539.46516    0  875  432.00000  539.46516  24.9%     -    4s
     0     0  539.43424    0  885  432.00000  539.43424  24.9%     -    4s
     0     0  536.82187    0  841  432.00000  536.82187  24.3%     -    4s
     0     0  535.80457    0  844  432.00000  535.80457  24.0%     -    5s
     0     0  535.29128    0  857  432.00000  535.29128  23.9%     -    5s
     0     0  535.07926    0  870  432.00000  535.07926  23.9%     -    5s
     0     0  534.96277    0  874  432.00000  534.96277  23.8%     -    5s
     0     0  534.91894    0  882  432.00000  534.91894  23.8%     -    5s
     0     0  532.90772    0  892  432.00000  532.90772  23.4%     -    6s
H    0     0                     442.0000000  532.90772  20.6%     -    6s
     0     0  532.26271    0  877  442.00000  532.26271  20.4%     -    6s
     0     0  531.87592    0  935  442.00000  531.87592  20.3%     -    6s
     0     0  531.66076    0  937  442.00000  531.66076  20.3%     -    6s
     0     0  531.56520    0  945  442.00000  531.56520  20.3%     -    6s
     0     0  531.51473    0  961  442.00000  531.51473  20.3%     -    6s
     0     0  530.57029    0  925  442.00000  530.57029  20.0%     -    7s
H    0     0                     444.0000000  530.57029  19.5%     -    7s
     0     0  530.08799    0  934  444.00000  530.08799  19.4%     -    7s
     0     0  529.87020    0  968  444.00000  529.87020  19.3%     -    7s
     0     0  529.73404    0  969  444.00000  529.73404  19.3%     -    7s
     0     0  529.66262    0  987  444.00000  529.66262  19.3%     -    8s
     0     0  528.65760    0  928  444.00000  528.65760  19.1%     -    8s
H    0     0                     461.0000000  528.65760  14.7%     -    8s
     0     0  528.24114    0  959  461.00000  528.24114  14.6%     -    8s
     0     0  528.05592    0  979  461.00000  528.05592  14.5%     -    8s
     0     0  527.94265    0  972  461.00000  527.94265  14.5%     -    9s
     0     0  527.86317    0  967  461.00000  527.86317  14.5%     -    9s
     0     0  527.10531    0  952  461.00000  527.10531  14.3%     -    9s
     0     0  526.92094    0  962  461.00000  526.92094  14.3%     -    9s
     0     0  526.82473    0  980  461.00000  526.82473  14.3%     -   10s
     0     0  526.37242    0  981  461.00000  526.37242  14.2%     -   10s
     0     0  526.37242    0  964  461.00000  526.37242  14.2%     -   10s
H    0     0                     465.0000000  526.35321  13.2%     -   11s
H    0     0                     488.0000000  526.35321  7.86%     -   12s
     0     2  526.35321    0  963  488.00000  526.35321  7.86%     -   13s
    13    20  525.32601    4 1041  488.00000  526.03882  7.79%   503   15s
H   47    59                     489.0000000  525.18388  7.40%   436   19s
    58    71  524.50463   11 1033  489.00000  525.18388  7.40%   362   20s
   108   111  522.55997   15 1008  489.00000  525.18388  7.40%   213   25s
   150   157  523.26959   22  980  489.00000  525.18388  7.40%   176   30s
H  185   190                     490.0000000  525.18388  7.18%   178   34s
   194   197  521.22988   22  893  490.00000  525.18388  7.18%   180   35s
   240   252  522.34859   32  938  490.00000  525.18388  7.18%   176   40s
H  280   288                     491.0000000  525.18388  6.96%   175   44s
   287   300  521.78722   35  921  491.00000  525.18388  6.96%   175   45s
   336   348  520.52718   49  827  491.00000  525.18388  6.96%   168   50s
   378   394  520.25937   46  828  491.00000  525.18388  6.96%   161   55s
   435   456  519.08702   60  738  491.00000  525.18388  6.96%   156   60s
   510   555  518.54498   65  768  491.00000  525.18388  6.96%   146   67s
   554   624  517.74493   69  732  491.00000  525.18388  6.96%   141   71s
   625   697  517.19279   83  685  491.00000  525.18388  6.96%   131   78s
   656   697  516.60541   95  668  491.00000  525.18388  6.96%   127   81s
